NAME : Custom-CVRP
COMMENT : Custom generated data set
TYPE : CVRP
DIMENSION : 51
EDGE_WEIGHT_TYPE : EUC_2D
CAPACITY : 10
NODE_COORD_SECTION
 1 85 11
 2 48 49
 3 76 93
 4 10 51
 5 99 70
 6 53 59
 7 43 30
 8 74 34
 9 7 50
 10 73 88
 11 40 33
 12 2 35
 13 18 65
 14 5 13
 15 33 26
 16 35 3
 17 11 14
 18 95 32
 19 74 27
 20 6 32
 21 31 95
 22 29 46
 23 69 24
 24 84 62
 25 62 45
 26 64 45
 27 4 94
 28 25 37
 29 69 83
 30 92 30
 31 14 49
 32 12 11
 33 90 91
 34 54 32
 35 40 25
 36 24 83
 37 90 97
 38 74 65
 39 27 90
 40 37 25
 41 90 94
 42 74 13
 43 63 43
 44 70 77
 45 6 91
 46 53 89
 47 16 25
 48 75 94
 49 22 31
 50 15 51
 51 21 76
DEMAND_SECTION
 1 0
 2 2
 3 3
 4 2
 5 2
 6 1
 7 3
 8 1
 9 3
 10 1
 11 3
 12 3
 13 1
 14 3
 15 1
 16 3
 17 3
 18 1
 19 1
 20 3
 21 3
 22 1
 23 3
 24 1
 25 1
 26 2
 27 3
 28 2
 29 1
 30 2
 31 3
 32 2
 33 2
 34 2
 35 3
 36 3
 37 1
 38 2
 39 2
 40 2
 41 2
 42 2
 43 1
 44 2
 45 1
 46 1
 47 1
 48 2
 49 3
 50 2
 51 2
DEPOT_SECTION
 1
 -1
EOF
